00:00.0 clingo version 5.5.1
00:00.0 Reading from ...ols/../encodings/CTW_nat_optimal_V2.lp ...
29:59.672 UNKNOWN
29:59.773 
29:59.788 TIME LIMIT   : 1
29:59.820 Models       : 0+
29:59.825 Calls        : 1
29:59.836 Time         : 1800.019s (Solving: 0.00s 1st Model: 0.00s Unsat: 0.00s)
29:59.838 CPU Time     : 115.967s
